32	0

0	1	2
8	1	3
8	2	4	5
1	1	6
3	1	6
7	2	7	8
6	2	10	11
2	1	9
1	2	10	11
6	2	13	14
1	1	12
1	2	13	14
1	2	15	16
7	2	15	16
5	1	17
10	1	17
10	1	18
10	1	19
5	1	20
8	1	21
3	1	22
3	2	23	24
3	1	25
1	1	25
1	2	26	27
1	1	28
1	1	28
3	1	29
6	1	30
1	1	31
7	1	32
0	0
